NAME          MINQ
ROWS
 N  COST
 G  V1
 G  V2
 G  V3
 G  V4
COLUMNS
    XONE      COST        1            V1             .147 
    XONE      V2           .102        V3             .084 
    XONE      V4           .044 
    XTWO      COST        1            V1             .102 
    XTWO      V2           .144        V3             .120 
    XTWO      V4           .062 
    XTHR      COST        1            V1             .084 
    XTHR      V2           .120        V3             .179 
    XTHR      V4           .093
    XFOU      COST        1            V1             .044 
    XFOU      V2           .062        V3             .093
    XFOU      V4           .166
RHS
    RHS1      V1           .102        V2             .095 
    RHS1      V3           .1          V4             .112 
ENDATA
